TERM = { '.', 's(2)', 'in_1', 'local_0', 'in_2', 'in_4', 'in_3', 's(1)', 's(0)', 'in_5', 's(3)', 'in_0'};
null = '.';
s = 13;
n = 11;
ndeps = 1;
max_registers_sz = 4;
NR = 1;
registers = [|'local_0', 's(0)'|];
dependencies = [|'i32.store16_8', 'i32.load16_u_9'|];
GET_ENUM = { GET1, GET2, GET3, GET4, GET5};
SET_ENUM = { SET1, SET2, SET3, SET4, SET5};
TEE_ENUM = { TEE1, TEE2, TEE3, TEE4, TEE5};
N = 5;
OP = { 'i32.add_0', 'i32.const_0', 'i32.const_1', 'i32.store16_8', 'i32.load16_u_9' };
in_ops = [2, 0, 0, 2, 1 ];
out_ops = [1, 1, 1, 0, 1 ];
in1 = ['in_1', '.', '.', 'in_3', 'in_5' ];
in2 = ['in_2', '.', '.', 'in_4', '.' ];
in3 = ['.', '.', '.', '.', '.' ];
out1 = ['s(0)', 's(2)', 's(3)', '.', 's(1)' ];
out2 = ['.', '.', '.', '.', '.' ];
out3 = ['.', '.', '.', '.', '.' ];
comm = [true, false, false, false, false ];
gas = [1, 1, 1, 1, 1 ];
sz = [1, 1, 1, 1, 1 ];
stor = [false, false, false, true, false ];
lb = [ 1, 1, 1, 1, 1 ];
ub = [ 13, 13, 13, 13, 13 ];
startstack = [ 'in_0', 'in_1', 'in_2', 'in_3', 'in_4', 'in_5', null, null, null, null, null ];
endstack = [ 's(0)', 's(2)', 's(3)', 's(1)', null, null, null, null, null, null, null ];
